17 15

11 6 7 10 9 6 15 13 8 5
13 2 9 11 2 4 4 15 7 12 6 14
6 12 13 12 5 12 8 2 11 12
5 9 9 14 1 7 3 10 12 2 2 9
3 11 10 4 13 6 6 7
3 11 11 5 12 2 7 2 5 2
1 7 6 14 2 5 8 15 3 11
15 3 11 5 10 6 1 10 5 11
1 12 8 9 7 11 14 11 11 2 12 8
7 10 2 7 14 6 12 12 9 2
10 14 9 9 14 9 11 13 3 8
1 8 3 6 7 9 4 4 6 8 14 3
11 6 10 14 5 11 3 8 1 10 13 14
13 14 7 9 9 8 12 7 5 2 2 15
1 4 13 9 12 5 10 13 15 6
15 9 9 9 14 10 7 14
12 13 9 2 13 10 10 9
